c "486232.clq"
p edge 150 584
e 1 5
e 1 6
e 1 7
e 1 8
e 1 9
e 1 10
e 1 13
e 1 14
e 1 15
e 1 20
e 1 25
e 1 32
e 1 36
e 1 42
e 1 43
e 1 44
e 1 46
e 1 61
e 1 64
e 1 65
e 1 71
e 1 75
e 1 108
e 1 117
e 1 147
e 1 149
e 2 5
e 2 6
e 2 7
e 2 8
e 2 11
e 2 102
e 2 142
e 3 5
e 3 54
e 4 5
e 4 6
e 4 7
e 4 11
e 4 12
e 4 16
e 4 21
e 4 26
e 4 27
e 4 33
e 4 56
e 4 63
e 4 66
e 4 99
e 4 119
e 4 123
e 4 127
e 4 131
e 4 132
e 4 138
e 5 6
e 5 7
e 5 9
e 5 10
e 5 11
e 5 13
e 5 19
e 5 22
e 5 24
e 5 29
e 5 32
e 5 38
e 5 41
e 5 45
e 5 49
e 5 65
e 5 69
e 5 73
e 5 91
e 5 95
e 5 108
e 5 115
e 5 130
e 5 133
e 5 136
e 5 149
e 6 8
e 6 10
e 6 14
e 6 18
e 6 24
e 6 31
e 6 37
e 6 50
e 6 58
e 6 60
e 6 78
e 6 84
e 6 98
e 6 113
e 6 116
e 6 130
e 7 8
e 7 9
e 7 14
e 7 16
e 7 18
e 7 19
e 7 21
e 7 23
e 7 25
e 7 30
e 7 33
e 7 35
e 7 36
e 7 37
e 7 39
e 7 42
e 7 43
e 7 52
e 7 55
e 7 60
e 7 71
e 7 74
e 7 114
e 7 117
e 7 118
e 7 120
e 7 126
e 7 128
e 7 135
e 7 138
e 7 150
e 8 9
e 8 10
e 8 11
e 8 12
e 8 14
e 8 15
e 8 17
e 8 20
e 8 21
e 8 25
e 8 27
e 8 30
e 8 31
e 8 36
e 8 37
e 8 38
e 8 42
e 8 45
e 8 49
e 8 50
e 8 58
e 8 68
e 8 72
e 8 75
e 8 77
e 8 82
e 8 84
e 8 93
e 8 97
e 8 109
e 8 113
e 8 120
e 8 143
e 9 13
e 9 15
e 9 16
e 9 26
e 9 56
e 9 64
e 9 77
e 9 87
e 9 125
e 10 12
e 10 17
e 10 19
e 10 23
e 10 35
e 10 39
e 10 58
e 10 83
e 10 84
e 10 89
e 10 95
e 10 101
e 10 112
e 10 121
e 10 145
e 10 146
e 11 12
e 11 16
e 11 45
e 11 49
e 11 57
e 11 59
e 11 60
e 11 67
e 11 69
e 11 96
e 11 127
e 11 145
e 11 147
e 11 148
e 12 13
e 12 15
e 12 24
e 12 27
e 12 35
e 12 38
e 12 41
e 12 49
e 12 73
e 12 76
e 12 82
e 12 103
e 12 116
e 12 121
e 12 129
e 12 130
e 13 18
e 13 19
e 13 21
e 13 31
e 13 62
e 13 66
e 13 68
e 13 94
e 13 103
e 13 123
e 13 129
e 13 134
e 13 136
e 14 17
e 14 22
e 14 27
e 14 33
e 14 36
e 14 54
e 14 72
e 14 89
e 14 128
e 14 141
e 14 145
e 15 17
e 15 22
e 15 23
e 15 26
e 15 32
e 15 34
e 15 35
e 15 46
e 15 47
e 15 51
e 15 59
e 15 61
e 15 67
e 15 69
e 15 70
e 15 77
e 15 78
e 15 85
e 15 86
e 15 90
e 15 107
e 15 112
e 15 117
e 15 122
e 15 128
e 15 148
e 16 20
e 16 40
e 16 48
e 16 57
e 16 72
e 16 74
e 16 102
e 16 128
e 17 18
e 17 29
e 17 30
e 17 31
e 17 32
e 17 39
e 17 44
e 17 56
e 17 59
e 17 80
e 17 87
e 17 101
e 17 103
e 17 112
e 17 119
e 17 124
e 17 126
e 17 131
e 17 144
e 18 20
e 18 28
e 18 43
e 18 44
e 18 45
e 18 50
e 18 58
e 18 60
e 18 67
e 18 78
e 18 114
e 18 118
e 18 126
e 18 150
e 19 37
e 19 40
e 19 71
e 19 82
e 19 107
e 19 147
e 20 22
e 20 23
e 20 24
e 20 28
e 20 30
e 20 47
e 20 48
e 20 53
e 20 55
e 20 66
e 20 85
e 20 91
e 21 40
e 21 46
e 21 61
e 21 68
e 21 71
e 21 95
e 21 119
e 21 133
e 21 143
e 22 25
e 22 43
e 22 48
e 22 50
e 22 51
e 22 57
e 22 74
e 22 89
e 22 92
e 22 124
e 22 132
e 22 140
e 23 53
e 23 54
e 23 73
e 23 85
e 23 105
e 23 116
e 23 138
e 23 144
e 24 26
e 24 94
e 24 123
e 24 140
e 25 28
e 25 29
e 25 42
e 25 52
e 25 62
e 25 77
e 25 136
e 25 141
e 26 29
e 26 34
e 26 39
e 26 76
e 26 81
e 26 93
e 26 109
e 26 118
e 26 125
e 26 134
e 26 135
e 26 143
e 27 28
e 27 41
e 27 52
e 27 88
e 28 34
e 28 51
e 28 57
e 28 64
e 29 47
e 29 54
e 29 63
e 29 84
e 29 92
e 29 93
e 29 111
e 29 129
e 30 62
e 30 107
e 31 33
e 31 38
e 31 40
e 31 62
e 31 67
e 31 80
e 31 86
e 31 88
e 31 91
e 31 111
e 31 127
e 31 144
e 32 47
e 32 53
e 32 68
e 32 75
e 32 76
e 32 87
e 32 118
e 32 142
e 33 34
e 33 61
e 33 64
e 33 66
e 33 74
e 33 76
e 33 79
e 33 88
e 33 99
e 34 65
e 34 97
e 34 99
e 35 101
e 35 104
e 35 109
e 36 63
e 37 48
e 37 52
e 37 72
e 37 82
e 37 137
e 38 80
e 38 91
e 38 104
e 38 119
e 38 134
e 39 106
e 40 41
e 40 51
e 40 83
e 40 92
e 40 94
e 40 131
e 40 143
e 41 46
e 41 103
e 41 105
e 41 106
e 41 116
e 41 132
e 43 44
e 43 86
e 43 94
e 43 127
e 43 149
e 44 73
e 44 110
e 44 113
e 45 70
e 45 80
e 45 81
e 46 59
e 46 139
e 46 140
e 47 53
e 47 55
e 47 63
e 47 70
e 47 111
e 47 115
e 48 79
e 48 99
e 48 111
e 48 130
e 48 147
e 49 81
e 49 120
e 49 124
e 50 104
e 50 110
e 51 65
e 52 96
e 53 75
e 53 79
e 53 86
e 53 100
e 54 55
e 54 101
e 54 110
e 54 136
e 55 56
e 55 115
e 56 70
e 56 105
e 56 114
e 56 135
e 58 106
e 58 108
e 58 121
e 58 122
e 59 78
e 59 98
e 60 69
e 60 87
e 60 100
e 60 150
e 61 85
e 61 129
e 62 89
e 62 90
e 62 105
e 63 113
e 64 97
e 64 141
e 65 110
e 66 100
e 66 148
e 69 83
e 69 114
e 70 83
e 70 90
e 70 93
e 70 109
e 70 141
e 71 96
e 73 81
e 73 95
e 76 107
e 77 135
e 77 149
e 78 79
e 78 92
e 78 112
e 78 138
e 78 146
e 79 88
e 82 125
e 83 140
e 84 97
e 84 145
e 85 115
e 86 104
e 86 131
e 86 134
e 87 121
e 88 96
e 88 137
e 89 90
e 90 98
e 91 98
e 91 108
e 92 133
e 95 100
e 95 102
e 95 125
e 98 102
e 98 120
e 98 122
e 100 139
e 100 150
e 104 106
e 105 117
e 105 132
e 107 133
e 109 148
e 110 126
e 110 137
e 110 142
e 111 139
e 113 123
e 113 142
e 117 139
e 119 122
e 121 124
e 125 144
e 136 137
e 136 146
e 142 146
